Please solve the following SAT Problem encoded in DIMACS format, only return a single solution assignment without explanations, if there is any: 
p cnf 10 50
-2 10 4 0
-7 -4 -3 0
-10 8 -4 0
7 -8 -3 0
-4 -3 -5 0
-5 -6 -2 0
10 -2 -8 0
1 10 9 0
-6 -8 -2 0
-5 -4 -9 0
-7 -4 10 0
-7 3 -5 0
-8 10 -5 0
7 -8 -2 0
-4 9 7 0
-6 -2 -9 0
-3 -6 4 0
-1 9 7 0
-4 9 -3 0
-7 10 9 0
7 10 1 0
-2 -3 -4 0
-6 -2 4 0
-2 1 6 0
-8 -4 -10 0
-4 1 -8 0
7 -6 5 0
8 3 -6 0
1 -6 -4 0
-5 1 10 0
-8 9 4 0
-8 5 -2 0
7 10 -5 0
5 9 7 0
-3 -1 -4 0
-3 -8 -4 0
4 -2 10 0
-2 10 8 0
-7 -5 10 0
8 -5 1 0
-6 -8 -4 0
-2 7 -10 0
10 9 -5 0
10 -6 -2 0
6 9 10 0
-4 -2 7 0
10 -4 1 0
-4 -3 8 0
-8 -5 -2 0
-1 10 -6 0

